Minimize
  obj: 0
Subject To
 
\true constraint
c0:  + 85 x0 + 410 x1 + 604 x2 + 510 x3 + 583 x4 + 605 x5 + 516 x6 + 459 x7 + 380 x8 + 182 x9 + 270 x10 + 239 x11 + 688 x12 + 399 x13 + 206 x14 + 19 x15 + 691 x16 + 299 x17 + 679 x18 + 252 x19 <= 4038
 
\multiple objectives
c1:  - 149 x0 - 741 x1 - 532 x2 - 380 x3 - 656 x4 - 391 x5 - 694 x6 - 371 x7 - 579 x8 - 662 x9 - 154 x10 - 201 x11 - 489 x12 - 993 x13 - 788 x14 - 148 x15 - 82 x16 - 232 x17 - 312 x18 - 178 x19 < 1
c2:  - 384 x0 - 23 x1 - 987 x2 - 847 x3 - 18 x4 - 504 x5 - 104 x6 - 322 x7 - 253 x8 - 668 x9 - 215 x10 - 402 x11 - 408 x12 - 746 x13 - 782 x14 - 63 x15 - 137 x16 - 476 x17 - 434 x18 - 715 x19 < 2
c3:  - 137 x0 - 587 x1 - 916 x2 - 626 x3 - 580 x4 - 703 x5 - 774 x6 - 662 x7 - 935 x8 - 86 x9 - 840 x10 - 319 x11 - 108 x12 - 826 x13 - 165 x14 - 126 x15 - 329 x16 - 269 x17 - 448 x18 - 582 x19 < 3
c4:  - 936 x0 - 662 x1 - 983 x2 - 344 x3 - 408 x4 - 765 x5 - 406 x6 - 544 x7 - 240 x8 - 840 x9 - 259 x10 - 376 x11 - 426 x12 - 174 x13 - 2 x14 - 6 x15 - 876 x16 - 775 x17 - 667 x18 - 811 x19 < 4
c5:  - 860 x0 - 506 x1 - 129 x2 - 967 x3 - 332 x4 - 293 x5 - 93 x6 - 660 x7 - 561 x8 - 540 x9 - 242 x10 - 497 x11 - 202 x12 - 225 x13 - 840 x14 - 609 x15 - 989 x16 - 246 x17 - 152 x18 - 228 x19 < 5

BINARY
x0 x1 x2 x3 x4 x5 x6 x7 x8 x9 x10 x11 x12 x13 x14 x15 x16 x17 x18 x19
End
